100
100
3000 3000 3000 3000 3000 3000 3000 3000 3000 3000 3000 3000 3000 3000 3000 3000 3000 3000 3000 3000 3000 3000 3000 3000 3000 3000 3000 3000 3000 3000 3000 3000 3000 3000 3000 3000 3000 3000 3000 3000 3000 3000 3000 3000 3000 3000 3000 3000 3000 3000 3000 3000 3000 3000 3000 3000 3000 3000 3000 3000 3000 3000 3000 3000 3000 3000 3000 3000 3000 3000 3000 3000 3000 3000 3000 3000 3000 3000 3000 3000 3000 3000 3000 3000 3000 3000 3000 3000 3000 3000 3000 3000 3000 3000 3000 3000 3000 3000 3000 3000
0 1 1
0 3 4
0 18 3
0 19 1
0 25 3
0 36 1
0 44 1
0 60 2
0 61 3
0 82 4
1 4 1
1 16 3
1 17 4
1 23 4
1 27 3
1 35 0
1 38 4
1 69 1
1 78 0
1 82 0
2 0 4
2 7 1
2 23 2
2 29 0
2 33 2
2 35 4
2 68 2
2 74 2
2 78 2
2 83 2
3 7 4
3 11 0
3 25 2
3 26 2
3 61 2
3 71 0
3 76 0
3 78 0
3 84 0
3 86 3
4 0 0
4 2 2
4 3 0
4 22 4
4 28 3
4 30 4
4 41 4
4 66 3
4 84 1
4 86 2
5 3 3
5 6 0
5 10 0
5 11 1
5 29 4
5 36 1
5 55 2
5 65 4
5 74 3
5 79 0
6 12 4
6 24 0
6 30 2
6 33 4
6 34 3
6 43 0
6 53 4
6 73 2
6 81 0
6 89 3
7 2 3
7 5 1
7 9 4
7 13 2
7 31 2
7 33 3
7 43 2
7 44 1
7 49 1
7 51 4
8 12 2
8 17 1
8 20 2
8 33 1
8 35 4
8 51 3
8 58 4
8 59 3
8 62 2
8 64 3
9 7 4
9 20 1
9 30 1
9 34 0
9 54 3
9 56 1
9 59 1
9 64 0
9 86 4
9 89 0
10 13 4
10 35 2
10 36 0
10 43 1
10 46 1
10 50 0
10 52 0
10 60 0
10 73 2
10 86 1
11 2 1
11 14 0
11 44 0
11 46 2
11 58 2
11 66 4
11 69 0
11 91 4
11 93 1
11 97 3
12 60 4
12 63 1
12 70 3
12 71 1
12 83 4
12 88 1
12 89 0
12 92 3
12 94 4
12 95 2
13 4 2
13 14 4
13 19 3
13 26 1
13 35 1
13 41 2
13 47 2
13 53 2
13 54 1
13 67 0
14 16 4
14 17 2
14 47 2
14 71 4
14 72 1
14 81 2
14 89 0
14 91 1
14 95 3
14 97 1
15 11 0
15 18 4
15 27 3
15 28 4
15 30 1
15 36 4
15 68 3
15 72 2
15 73 1
15 76 4
16 12 4
16 29 1
16 40 2
16 44 4
16 56 4
16 67 2
16 75 0
16 84 0
16 93 4
16 99 3
17 14 4
17 25 3
17 34 4
17 46 0
17 49 1
17 50 0
17 51 3
17 69 3
17 80 4
17 82 4
18 0 1
18 10 4
18 21 2
18 23 3
18 63 1
18 70 4
18 81 4
18 82 4
18 84 4
18 89 4
19 7 3
19 35 0
19 41 3
19 79 4
19 83 1
19 85 0
19 89 3
19 92 4
19 93 2
19 94 3
20 29 1
20 36 3
20 39 4
20 51 4
20 56 2
20 60 3
20 65 2
20 66 2
20 74 0
20 83 3
21 25 1
21 28 4
21 36 0
21 72 1
21 76 1
21 86 2
21 90 2
21 93 3
21 94 0
21 96 0
22 12 2
22 23 0
22 48 2
22 62 3
22 63 2
22 85 4
22 87 2
22 93 3
22 98 0
22 99 3
23 9 4
23 16 4
23 24 3
23 42 4
23 43 3
23 47 1
23 54 3
23 57 4
23 67 2
23 68 1
24 0 2
24 24 1
24 32 4
24 40 3
24 52 2
24 56 3
24 64 0
24 66 4
24 67 1
24 68 1
25 19 4
25 21 0
25 57 2
25 65 4
25 69 3
25 80 4
25 81 1
25 87 1
25 88 1
25 93 0
26 5 4
26 16 1
26 20 4
26 22 3
26 28 2
26 54 2
26 91 4
26 97 1
26 98 4
26 99 4
27 15 4
27 26 2
27 28 4
27 43 3
27 50 1
27 56 1
27 60 3
27 61 3
27 75 0
27 77 0
28 8 0
28 12 1
28 20 3
28 23 3
28 30 2
28 32 0
28 40 1
28 41 2
28 53 3
28 58 4
29 2 1
29 15 4
29 23 4
29 26 2
29 35 3
29 37 0
29 47 4
29 53 2
29 74 1
29 77 3
30 4 3
30 8 3
30 15 1
30 16 1
30 31 2
30 38 2
30 45 4
30 49 2
30 54 0
30 56 1
31 3 4
31 6 0
31 12 1
31 17 3
31 19 1
31 50 2
31 53 1
31 63 2
31 64 2
31 71 1
32 1 2
32 5 4
32 11 3
32 13 3
32 28 3
32 31 1
32 66 1
32 74 0
32 90 2
32 91 4
33 4 4
33 16 3
33 20 2
33 28 4
33 45 3
33 49 0
33 59 2
33 64 4
33 81 2
33 90 1
34 4 4
34 7 1
34 31 2
34 41 1
34 43 4
34 44 3
34 58 1
34 66 2
34 77 1
34 78 1
35 14 1
35 21 1
35 29 4
35 33 4
35 35 0
35 37 3
35 45 4
35 55 0
35 56 2
35 65 1
36 1 4
36 5 4
36 21 3
36 40 0
36 42 1
36 47 4
36 48 1
36 57 2
36 83 2
36 84 2
37 8 3
37 9 1
37 24 3
37 46 2
37 63 1
37 65 1
37 66 1
37 87 1
37 96 4
37 97 2
38 6 1
38 8 0
38 28 1
38 47 4
38 48 1
38 53 4
38 68 0
38 77 3
38 89 0
38 91 2
39 11 1
39 37 4
39 42 3
39 52 4
39 54 1
39 67 2
39 70 2
39 71 4
39 81 1
39 85 3
40 6 0
40 19 1
40 25 3
40 47 3
40 57 2
40 73 1
40 87 3
40 90 2
40 94 4
40 96 2
41 4 2
41 12 0
41 20 3
41 22 2
41 38 3
41 59 3
41 64 2
41 71 3
41 79 3
41 93 4
42 8 4
42 22 2
42 27 0
42 29 2
42 34 4
42 35 2
42 37 2
42 45 4
42 55 4
42 64 1
43 1 4
43 10 1
43 13 4
43 16 3
43 20 0
43 21 0
43 26 2
43 30 4
43 39 2
43 41 4
44 4 1
44 11 0
44 15 2
44 29 1
44 36 1
44 38 3
44 40 4
44 53 4
44 57 4
44 73 2
45 1 4
45 2 4
45 8 0
45 24 3
45 32 1
45 39 3
45 41 1
45 42 0
45 45 1
45 74 0
46 4 0
46 6 1
46 17 4
46 19 2
46 25 3
46 27 4
46 58 4
46 65 1
46 67 4
46 79 2
47 12 0
47 13 0
47 18 4
47 37 4
47 63 1
47 87 2
47 91 2
47 96 4
47 98 3
47 99 3
48 9 3
48 17 4
48 18 2
48 39 2
48 51 4
48 63 4
48 76 1
48 92 2
48 98 1
48 99 2
49 12 3
49 22 2
49 29 3
49 31 0
49 32 0
49 42 2
49 47 2
49 57 0
49 61 2
49 66 4
50 3 2
50 23 4
50 29 3
50 32 0
50 42 4
50 50 2
50 52 2
50 53 2
50 59 0
50 63 1
51 0 1
51 5 4
51 11 3
51 24 2
51 38 0
51 45 0
51 46 2
51 87 1
51 92 1
51 95 2
52 5 0
52 15 3
52 16 1
52 18 1
52 24 2
52 27 1
52 49 0
52 52 1
52 55 0
52 59 0
53 0 3
53 6 4
53 34 2
53 60 2
53 69 4
53 70 2
53 92 0
53 93 4
53 96 2
53 97 0
54 23 0
54 46 3
54 64 0
54 77 3
54 88 0
54 90 1
54 96 4
54 97 0
54 98 3
54 99 0
55 14 2
55 21 3
55 42 4
55 48 3
55 56 2
55 62 4
55 80 2
55 87 1
55 89 3
55 92 3
56 8 1
56 11 0
56 48 1
56 51 0
56 54 0
56 57 0
56 63 3
56 71 1
56 79 3
56 80 1
57 7 0
57 17 4
57 20 1
57 28 0
57 34 4
57 43 4
57 52 4
57 75 3
57 77 1
57 83 1
58 18 3
58 32 3
58 33 3
58 36 0
58 39 2
58 44 2
58 68 0
58 80 2
58 89 4
58 91 0
59 3 3
59 7 1
59 8 1
59 30 0
59 34 3
59 44 1
59 62 0
59 72 3
59 75 2
59 77 0
60 22 4
60 25 3
60 38 2
60 46 2
60 58 4
60 78 3
60 87 0
60 92 1
60 94 0
60 95 3
61 0 0
61 5 3
61 10 4
61 38 4
61 50 0
61 54 3
61 58 2
61 61 3
61 72 2
61 77 0
62 30 3
62 31 0
62 40 4
62 59 1
62 61 0
62 62 1
62 68 3
62 70 3
62 81 4
62 85 0
63 44 0
63 69 3
63 73 0
63 76 4
63 80 1
63 87 0
63 93 0
63 94 3
63 98 4
63 99 0
64 1 3
64 6 0
64 7 3
64 11 1
64 32 0
64 36 4
64 41 2
64 46 2
64 73 2
64 85 4
65 18 4
65 21 2
65 33 0
65 36 1
65 38 1
65 42 4
65 43 0
65 52 0
65 55 1
65 56 3
66 15 4
66 16 1
66 27 2
66 43 1
66 48 4
66 53 0
66 60 3
66 68 3
66 80 4
66 84 3
67 21 3
67 25 3
67 49 2
67 71 1
67 72 1
67 75 4
67 81 4
67 82 1
67 84 4
67 85 2
68 0 1
68 9 0
68 11 2
68 26 0
68 34 2
68 42 0
68 56 1
68 76 3
68 79 1
68 85 0
69 4 2
69 5 0
69 10 4
69 16 1
69 21 0
69 25 0
69 26 3
69 37 4
69 40 4
69 52 0
70 10 1
70 28 2
70 51 0
70 62 3
70 69 3
70 70 1
70 80 3
70 86 3
70 91 2
70 96 1
71 1 3
71 8 1
71 22 4
71 33 1
71 42 1
71 67 0
71 72 1
71 74 2
71 78 3
71 84 3
72 0 4
72 3 2
72 31 4
72 34 0
72 45 2
72 49 1
72 54 2
72 65 3
72 67 1
72 84 4
73 6 1
73 26 2
73 27 3
73 33 4
73 37 2
73 39 0
73 49 1
73 52 0
73 57 1
73 66 2
74 2 0
74 7 1
74 59 1
74 69 3
74 74 4
74 75 3
74 81 3
74 85 1
74 88 3
74 95 4
75 2 0
75 3 0
75 7 0
75 31 4
75 48 1
75 51 1
75 78 0
75 79 1
75 86 2
75 90 4
76 17 0
76 23 0
76 32 2
76 69 2
76 71 3
76 75 3
76 86 0
76 92 0
76 98 1
76 99 4
77 18 1
77 39 3
77 55 3
77 57 0
77 59 4
77 83 3
77 92 1
77 95 1
77 96 0
77 97 2
78 9 3
78 17 1
78 30 1
78 46 0
78 50 1
78 58 0
78 62 0
78 73 2
78 74 3
78 86 2
79 2 4
79 9 3
79 13 4
79 51 0
79 55 4
79 78 2
79 80 4
79 83 1
79 90 0
79 91 1
80 1 1
80 19 2
80 22 2
80 26 3
80 43 3
80 70 1
80 73 2
80 86 4
80 88 1
80 89 2
81 5 4
81 14 1
81 18 2
81 32 1
81 39 2
81 44 0
81 61 0
81 72 1
81 73 2
81 75 2
82 6 1
82 25 3
82 48 4
82 72 3
82 82 0
82 88 0
82 94 3
82 95 4
82 98 0
82 99 3
83 9 1
83 39 1
83 40 0
83 44 2
83 47 2
83 48 1
83 50 3
83 61 4
83 76 0
83 78 0
84 13 2
84 14 0
84 15 4
84 30 0
84 32 0
84 34 2
84 37 0
84 50 3
84 55 2
84 77 2
85 4 1
85 13 4
85 15 4
85 19 3
85 26 0
85 45 1
85 49 2
85 61 0
85 68 4
85 75 0
86 55 0
86 60 1
86 77 2
86 83 0
86 94 2
86 95 4
86 96 4
86 97 0
86 98 1
86 99 3
87 15 2
87 20 3
87 24 4
87 62 2
87 74 3
87 76 3
87 88 2
87 90 2
87 92 2
87 93 2
88 6 3
88 24 3
88 52 1
88 59 4
88 65 1
88 82 2
88 88 0
88 91 2
88 96 0
88 97 4
89 9 4
89 51 0
89 64 2
89 71 0
89 79 1
89 80 1
89 82 0
89 84 0
89 87 2
89 97 2
90 1 0
90 24 4
90 27 2
90 63 3
90 72 2
90 83 0
90 85 2
90 94 2
90 95 0
90 98 2
91 2 0
91 10 1
91 29 4
91 31 4
91 33 0
91 40 1
91 64 4
91 67 4
91 76 1
91 88 3
92 9 0
92 14 4
92 17 0
92 22 2
92 27 1
92 37 0
92 40 3
92 53 1
92 58 4
92 76 3
93 10 0
93 15 1
93 31 3
93 39 4
93 47 4
93 69 0
93 70 4
93 78 0
93 82 1
93 90 4
94 13 1
94 37 1
94 45 3
94 54 1
94 62 0
94 75 4
94 79 1
94 85 0
94 90 3
94 94 2
95 3 0
95 8 3
95 10 4
95 14 1
95 20 1
95 38 1
95 49 4
95 62 1
95 65 1
95 79 0
96 19 1
96 22 1
96 41 2
96 46 0
96 58 1
96 60 4
96 66 0
96 67 0
96 68 0
96 70 1
97 1 2
97 2 0
97 12 0
97 18 3
97 21 4
97 23 4
97 41 0
97 50 0
97 70 1
97 82 4
98 3 4
98 19 2
98 27 2
98 48 3
98 57 1
98 60 2
98 61 0
98 81 1
98 88 1
98 95 2
99 0 2
99 5 2
99 10 4
99 13 0
99 14 4
99 35 2
99 38 1
99 45 4
99 55 4
99 65 4
